(set-option :print-success false)
(set-logic QF_UF)
(declare-sort x20 0)
(declare-sort x155 0)
(declare-fun x79 () x155)
(declare-fun x90 () x155)
(declare-fun x67 (x155 x155) x155)
(declare-fun x69 () x155)
(declare-fun x97 () x155)
(declare-fun x125 () x155)
(declare-fun x74 (x155 x155) x155)
(assert (let ((x35 (x67 x90 x90)) (x109 (x67 x97 x97)) (x80 (x67 x79 x79)) (x60 (x67 x69 x69)) (x61 (x67 x125 x125))) (let ((x58 (= x35 x90)) (x131 (= x69 x60)) (x130 (= x109 x97)) (x55 (= x79 x80)) (x17 (= x125 x61))) (let ((x96 (or (or (= x69 x61) (or x131 (or (= x69 x35) (= x69 x80)))) (= x109 x69))) (x44 (or (= x109 x79) (or (or (= x79 x60) (or (= x79 x35) x55)) (= x79 x61)))) (x132 (or x130 (or (= x61 x97) (or (or (= x80 x97) (= x97 x35)) (= x60 x97))))) (x52 (or (= x109 x125) (or x17 (or (= x125 x60) (or (= x125 x35) (= x80 x125)))))) (x68 (or (or (or (or (= x80 x90) x58) (= x60 x90)) (= x61 x90)) (= x109 x90)))) (and (and (and (and (and (and (or (not (= (x67 x90 x125) x90)) x52) (and (and (or x68 (not x58)) (or (not (= (x67 x90 x79) x90)) x44)) (or (not (= (x67 x90 x69) x90)) x96))) (or x132 (not (= x90 (x67 x90 x97))))) (and (or (not (= x79 (x67 x79 x97))) x132) (and (or (not (= (x67 x79 x125) x79)) x52) (and (and (or (not (= (x67 x79 x90) x79)) x68) (or x44 (not x55))) (or x96 (not (= (x67 x79 x69) x79))))))) (and (and (or (not (= (x67 x69 x125) x69)) x52) (and (and (or x44 (not (= (x67 x69 x79) x69))) (or x68 (not (= (x67 x69 x90) x69)))) (or x96 (not x131)))) (or (not (= (x67 x69 x97) x69)) x132))) (and (or (not (= x125 (x67 x125 x97))) x132) (and (and (or x96 (not (= x125 (x67 x125 x69)))) (and (or (not (= x125 (x67 x125 x79))) x44) (or (not (= x125 (x67 x125 x90))) x68))) (or (not x17) x52)))) (and (and (or x52 (not (= x97 (x67 x97 x125)))) (and (and (or (not (= x97 (x67 x97 x90))) x68) (or (not (= x97 (x67 x97 x79))) x44)) (or x96 (not (= x97 (x67 x97 x69)))))) (or x132 (not x130))))))))
(assert (let ((x76 (x67 x90 x97)) (x140 (x67 x97 x90)) (x49 (x67 x97 x125)) (x153 (x67 x97 x97)) (x61 (x67 x79 x125)) (x109 (x67 x79 x97)) (x34 (x67 x69 x69)) (x68 (x67 x69 x79)) (x35 (x67 x79 x90)) (x110 (x67 x90 x69)) (x80 (x67 x79 x79)) (x106 (x67 x90 x125)) (x60 (x67 x79 x69)) (x96 (x67 x125 x79)) (x115 (x67 x125 x125)) (x51 (x67 x125 x97)) (x151 (x67 x125 x69)) (x37 (x67 x97 x69)) (x50 (x67 x69 x97)) (x58 (x67 x90 x79)) (x52 (x67 x97 x79)) (x95 (x67 x125 x90)) (x158 (x67 x90 x90)) (x146 (x67 x69 x125)) (x33 (x67 x69 x90))) (let ((x75 (= x125 x158)) (x62 (= x97 x146)) (x25 (= x125 x34)) (x124 (= x97 x35)) (x66 (= x35 x79)) (x64 (= x52 x97)) (x159 (= x76 x69)) (x108 (= x79 x110)) (x149 (= x68 x69)) (x57 (= x95 x79)) (x3 (= x76 x125)) (x98 (= x90 x153)) (x53 (= x79 x51)) (x23 (= x50 x69)) (x150 (= x96 x90)) (x81 (= x125 x110)) (x45 (= x125 x146)) (x16 (= x125 x37)) (x86 (= x97 x115)) (x121 (= x69 x51)) (x7 (= x90 x115)) (x5 (= x90 x34)) (x144 (= x97 x106)) (x47 (= x125 x50)) (x27 (= x110 x90)) (x116 (= x146 x90)) (x107 (= x90 x49)) (x38 (= x90 x76)) (x10 (= x106 x69)) (x118 (= x158 x90)) (x120 (= x61 x79)) (x56 (= x50 x79)) (x77 (= x69 x158)) (x101 (= x106 x125)) (x72 (= x95 x125)) (x113 (= x109 x125)) (x42 (= x33 x97)) (x70 (= x79 x151)) (x156 (= x60 x79)) (x31 (= x90 x37)) (x29 (= x146 x79)) (x24 (= x51 x90)) (x55 (= x79 x80)) (x6 (= x140 x90)) (x63 (= x51 x97)) (x36 (= x109 x90)) (x147 (= x79 x153)) (x46 (= x79 x68)) (x28 (= x125 x33)) (x71 (= x140 x97)) (x157 (= x110 x97)) (x9 (= x90 x50)) (x92 (= x69 x60)) (x103 (= x34 x97)) (x123 (= x69 x151)) (x136 (= x115 x69)) (x134 (= x125 x115)) (x130 (= x58 x79)) (x122 (= x125 x61)) (x87 (= x146 x69)) (x127 (= x158 x79)) (x137 (= x37 x79)) (x99 (= x110 x69)) (x48 (= x52 x90)) (x26 (= x33 x79)) (x30 (= x35 x69)) (x19 (= x79 x115)) (x126 (= x95 x69)) (x132 (= x80 x69)) (x18 (= x76 x97)) (x105 (= x60 x97)) (x43 (= x125 x153)) (x131 (= x125 x80)) (x15 (= x61 x69)) (x148 (= x79 x52)) (x4 (= x96 x125)) (x88 (= x69 x140)) (x129 (= x49 x79)) (x93 (= x90 x35)) (x128 (= x79 x106)) (x141 (= x95 x90)) (x83 (= x125 x151)) (x65 (= x69 x58)) (x32 (= x69 x96)) (x54 (= x140 x125)) (x84 (= x151 x97)) (x17 (= x97 x80)) (x112 (= x79 x140)) (x91 (= x97 x96)) (x13 (= x49 x69)) (x1 (= x97 x50)) (x152 (= x125 x52)) (x14 (= x90 x33)) (x73 (= x69 x109)) (x154 (= x68 x90)) (x59 (= x34 x79)) (x143 (= x109 x97)) (x82 (= x60 x90)) (x100 (= x68 x125)) (x44 (= x90 x80)) (x117 (= x76 x79)) (x145 (= x60 x125)) (x135 (= x97 x58)) (x21 (= x79 x109)) (x94 (= x34 x69)) (x119 (= x97 x95)) (x139 (= x90 x151)) (x40 (= x61 x90)) (x8 (= x49 x125)) (x138 (= x97 x153)) (x142 (= x97 x49)) (x104 (= x153 x69)) (x89 (= x125 x58)) (x133 (= x69 x52)) (x11 (= x69 x37)) (x111 (= x125 x51)) (x41 (= x90 x58)) (x22 (= x33 x69)) (x85 (= x158 x97)) (x102 (= x97 x37)) (x114 (= x68 x97)) (x39 (= x79 x96)) (x2 (= x61 x97)) (x12 (= x106 x90)) (x78 (= x35 x125))) (and (and (and (and (and (and (and (or (or (or x100 (or x89 x131)) x4) x152) (or (or (or x145 (or x78 x131)) x122) x113)) (and (and (or (or x15 (or (or x30 x132) x92)) x73) (or (or x32 (or (or x132 x65) x149)) x133)) (and (and (or x36 (or x40 (or (or x44 x93) x82))) (or (or (or (or x44 x41) x154) x150) x48)) (and (or (or x39 (or x46 (or x130 x55))) x148) (or (or x120 (or (or x66 x55) x156)) x21))))) (and (or (or (or x105 (or x17 x124)) x2) x143) (or (or x91 (or (or x135 x17) x114)) x64))) (and (and (or (or x144 (or x157 (or x85 x135))) x18) (or (or (or (or x124 x85) x42) x119) x71)) (and (and (and (or (or x126 (or (or x77 x30) x22)) x88) (or (or (or (or x77 x65) x99) x10) x159)) (and (and (or (or (or x26 (or x66 x127)) x57) x112) (or (or (or x108 (or x130 x127)) x128) x117)) (and (or x38 (or x12 (or x27 (or x118 x41)))) (or x6 (or (or x14 (or x118 x93)) x141))))) (and (or x3 (or x101 (or (or x89 x75) x81))) (or x54 (or (or (or x75 x78) x28) x72)))))) (and (and (or (or (or x103 (or x157 x105)) x84) x102) (or (or x62 (or (or x42 x114) x103)) x1)) (and (and (and (and (or (or x139 (or (or x82 x27) x5)) x31) (or (or (or x5 (or x154 x14)) x116) x9)) (and (or x137 (or (or (or x156 x108) x59) x70)) (or (or (or (or x26 x46) x59) x29) x56))) (and (or x23 (or (or (or x22 x149) x94) x87)) (or (or x123 (or (or x92 x99) x94)) x11))) (and (or (or (or (or x145 x81) x25) x83) x16) (or (or (or x25 (or x100 x28)) x45) x47))))) (and (and (or (or (or x84 (or x119 x91)) x86) x63) (or x142 (or x86 (or (or x2 x144) x62)))) (and (and (and (or x121 (or x136 (or x123 (or x126 x32)))) (or (or (or x87 (or x15 x10)) x136) x13)) (and (and (or x24 (or x7 (or (or x150 x141) x139))) (or (or x7 (or x116 (or x12 x40))) x107)) (and (or x53 (or x19 (or x70 (or x39 x57)))) (or x129 (or (or x29 (or x120 x128)) x19))))) (and (or (or (or x83 (or x72 x4)) x134) x111) (or x8 (or x134 (or x45 (or x122 x101)))))))) (and (and (or x138 (or (or (or x18 x143) x1) x63)) (or x138 (or x142 (or (or x64 x71) x102)))) (and (and (or (or (or (or x152 x54) x16) x8) x43) (or x43 (or x111 (or (or x113 x3) x47)))) (and (and (or x104 (or (or (or x159 x73) x23) x121)) (or (or (or (or x88 x133) x11) x13) x104)) (and (and (or x147 (or (or (or x21 x117) x56) x53)) (or x147 (or (or x137 (or x112 x148)) x129))) (and (or (or (or (or x38 x36) x9) x24) x98) (or (or x107 (or x31 (or x48 x6))) x98))))))))))
(assert (let ((x77 (x67 x79 x69)) (x154 (x67 x90 x125)) (x26 (x67 x90 x90)) (x99 (x67 x97 x69)) (x150 (x67 x97 x97)) (x22 (x67 x125 x69)) (x114 (x67 x125 x125)) (x75 (x67 x125 x79)) (x92 (x67 x69 x97)) (x59 (x67 x69 x90)) (x30 (x67 x90 x79)) (x95 (x67 x79 x79)) (x14 (x67 x125 x90)) (x124 (x67 x97 x79)) (x146 (x67 x97 x90)) (x105 (x67 x125 x97)) (x65 (x67 x79 x90)) (x34 (x67 x90 x97)) (x135 (x67 x79 x97)) (x151 (x67 x69 x69)) (x149 (x67 x69 x125)) (x157 (x67 x97 x125)) (x89 (x67 x69 x79)) (x78 (x67 x79 x125)) (x108 (x67 x90 x69))) (let ((x55 (= x95 x79)) (x140 (= x95 x90)) (x106 (= x99 x79)) (x35 (= x79 x65)) (x4 (= x114 x69)) (x18 (= x97 x92)) (x127 (= x79 x124)) (x64 (= x124 x97)) (x39 (= x135 x90)) (x119 (= x105 x69)) (x153 (= x125 x135)) (x52 (= x78 x79)) (x91 (= x69 x157)) (x84 (= x150 x69)) (x13 (= x97 x30)) (x25 (= x149 x90)) (x37 (= x151 x90)) (x129 (= x108 x125)) (x107 (= x125 x124)) (x136 (= x149 x69)) (x147 (= x154 x125)) (x3 (= x97 x154)) (x58 (= x79 x108)) (x1 (= x97 x157)) (x118 (= x79 x105)) (x33 (= x79 x150)) (x61 (= x79 x89)) (x71 (= x135 x97)) (x47 (= x22 x97)) (x72 (= x124 x69)) (x27 (= x90 x59)) (x8 (= x78 x97)) (x104 (= x97 x59)) (x158 (= x79 x146)) (x109 (= x77 x79)) (x121 (= x77 x97)) (x103 (= x90 x124)) (x101 (= x69 x34)) (x93 (= x79 x157)) (x80 (= x79 x30)) (x16 (= x75 x97)) (x148 (= x89 x125)) (x36 (= x125 x146)) (x66 (= x114 x79)) (x131 (= x79 x154)) (x38 (= x34 x125)) (x31 (= x125 x114)) (x112 (= x77 x125)) (x116 (= x69 x77)) (x62 (= x125 x65)) (x76 (= x92 x79)) (x159 (= x97 x26)) (x19 (= x90 x105)) (x133 (= x125 x105)) (x70 (= x90 x34)) (x53 (= x14 x125)) (x111 (= x149 x97)) (x24 (= x125 x92)) (x86 (= x26 x125)) (x57 (= x90 x146)) (x87 (= x69 x22)) (x115 (= x69 x30)) (x6 (= x125 x149)) (x142 (= x97 x34)) (x9 (= x99 x125)) (x29 (= x90 x157)) (x128 (= x92 x90)) (x63 (= x105 x97)) (x32 (= x151 x69)) (x43 (= x97 x114)) (x139 (= x69 x95)) (x145 (= x90 x154)) (x15 (= x69 x14)) (x83 (= x69 x135)) (x123 (= x69 x78)) (x51 (= x69 x65)) (x5 (= x108 x90)) (x102 (= x146 x97)) (x120 (= x99 x90)) (x130 (= x79 x149)) (x141 (= x90 x150)) (x48 (= x125 x22)) (x2 (= x95 x125)) (x138 (= x150 x97)) (x23 (= x89 x97)) (x49 (= x108 x69)) (x50 (= x89 x90)) (x98 (= x157 x125)) (x12 (= x89 x69)) (x42 (= x114 x90)) (x11 (= x95 x97)) (x44 (= x59 x79)) (x152 (= x108 x97)) (x68 (= x79 x151)) (x132 (= x14 x79)) (x21 (= x151 x125)) (x144 (= x125 x30)) (x60 (= x79 x26)) (x137 (= x59 x125)) (x110 (= x34 x79)) (x81 (= x22 x90)) (x94 (= x75 x90)) (x45 (= x99 x69)) (x46 (= x65 x90)) (x143 (= x97 x99)) (x17 (= x79 x22)) (x96 (= x79 x75)) (x117 (= x125 x75)) (x41 (= x79 x135)) (x40 (= x26 x69)) (x113 (= x14 x97)) (x100 (= x90 x78)) (x28 (= x14 x90)) (x10 (= x69 x154)) (x7 (= x69 x59)) (x126 (= x75 x69)) (x56 (= x125 x78)) (x85 (= x90 x30)) (x134 (= x92 x69)) (x73 (= x97 x65)) (x54 (= x151 x97)) (x82 (= x77 x90)) (x88 (= x150 x125)) (x156 (= x26 x90)) (x122 (= x69 x146))) (or (and (and (and (or x63 (not x1)) (and (or (not x143) x18) (and (or x142 (not x102)) (or (not x64) x71)))) (or x138 (not x138))) (and (and (and (and (and (and (and (or (not x11) x11) (or (not x73) x13)) (or (not x121) x23)) (or x16 (not x8))) (or x64 (not x71))) (and (or x102 (not x142)) (and (and (or (not x152) x104) (and (or x159 (not x159)) (or (not x13) x73))) (or (not x3) x113)))) (and (and (and (and (or x121 (not x23)) (or x152 (not x104))) (or (not x54) x54)) (or (not x111) x47)) (or (not x18) x143))) (and (or (not x63) x1) (and (and (or x111 (not x47)) (and (or (not x16) x8) (or (not x113) x3))) (or x43 (not x43)))))) (or (and (and (and (and (and (and (or (not x21) x21) (and (or (not x148) x112) (or x129 (not x137)))) (or (not x6) x48)) (or x9 (not x24))) (and (and (and (or (not x56) x117) (and (and (or (not x62) x144) (or (not x2) x2)) (or (not x112) x148))) (or (not x153) x107)) (and (and (and (and (or x86 (not x86)) (or (not x144) x62)) (or x137 (not x129))) (or x53 (not x147))) (or x36 (not x38))))) (and (and (or (not x31) x31) (and (or (not x48) x6) (and (or x56 (not x117)) (or (not x53) x147)))) (or x98 (not x133)))) (and (or (not x88) x88) (and (or x133 (not x98)) (and (and (or (not x107) x153) (or (not x36) x38)) (or x24 (not x9)))))) (or (or (and (and (and (or x29 (not x19)) (and (and (and (or x145 (not x28)) (or (not x94) x100)) (or x25 (not x81))) (or x42 (not x42)))) (and (and (and (or (not x25) x81) (and (and (or x5 (not x27)) (or x82 (not x50))) (or (not x37) x37))) (or x120 (not x128))) (and (and (or x103 (not x39)) (and (and (or (not x82) x50) (and (or (not x140) x140) (or x85 (not x46)))) (or x94 (not x100)))) (and (or (not x70) x57) (and (and (or (not x5) x27) (and (or (not x85) x46) (or (not x156) x156))) (or (not x145) x28)))))) (and (or (not x141) x141) (and (and (and (or (not x103) x39) (or (not x57) x70)) (or x128 (not x120))) (or x19 (not x29))))) (and (and (and (and (or x66 (not x66)) (and (or (not x17) x130) (and (or (not x132) x131) (or x52 (not x96))))) (or x93 (not x118))) (and (and (and (or (not x41) x127) (and (and (and (or x80 (not x35)) (or (not x55) x55)) (or (not x109) x61)) (or x96 (not x52)))) (and (and (and (or x44 (not x58)) (and (or x60 (not x60)) (or (not x80) x35))) (or (not x131) x132)) (or (not x110) x158))) (and (and (and (and (or (not x61) x109) (or (not x44) x58)) (or (not x68) x68)) (or x17 (not x130))) (or x106 (not x76))))) (and (or x33 (not x33)) (and (or x118 (not x93)) (and (and (or (not x158) x110) (or x41 (not x127))) (or (not x106) x76)))))) (and (and (or x84 (not x84)) (and (or x119 (not x91)) (and (or x134 (not x45)) (and (or (not x122) x101) (or (not x72) x83))))) (and (and (and (and (or x122 (not x101)) (and (and (or x7 (not x49)) (and (or (not x115) x51) (or (not x40) x40))) (or x15 (not x10)))) (and (and (and (or x12 (not x116)) (and (or x115 (not x51)) (or x139 (not x139)))) (or (not x123) x126)) (or (not x83) x72))) (and (or x45 (not x134)) (and (or x87 (not x136)) (and (or (not x32) x32) (and (or x49 (not x7)) (or x116 (not x12))))))) (and (and (or (not x4) x4) (and (and (or (not x15) x10) (or (not x126) x123)) (or x136 (not x87)))) (or x91 (not x119)))))))))))
(assert (let ((x61 (x67 x97 x79)) (x44 (x67 x90 x90)) (x80 (x67 x90 x79)) (x130 (x67 x97 x69)) (x60 (x67 x125 x79)) (x68 (x67 x125 x90)) (x132 (x67 x90 x69)) (x127 (x67 x90 x125)) (x110 (x67 x97 x125)) (x33 (x67 x97 x97)) (x158 (x67 x125 x125)) (x17 (x67 x125 x69)) (x131 (x67 x69 x69)) (x109 (x67 x79 x90)) (x76 (x67 x90 x97)) (x118 (x67 x125 x97)) (x52 (x67 x79 x69)) (x35 (x67 x69 x79)) (x96 (x67 x97 x90)) (x106 (x67 x79 x97)) (x93 (x67 x69 x97)) (x58 (x67 x69 x90)) (x66 (x67 x79 x125)) (x41 (x67 x69 x125)) (x55 (x67 x79 x79))) (and (and (and (and (and (not (= x93 x118)) (and (and (not (= x118 x76)) (and (not (= x76 x93)) (and (and (not (= x118 x106)) (and (not (= x93 x106)) (not (= x106 x76)))) (not (= x33 x106))))) (not (= x33 x76)))) (not (= x93 x33))) (not (= x33 x118))) (and (and (not (= x158 x110)) (and (not (= x41 x110)) (and (not (= x41 x158)) (and (not (= x127 x110)) (and (not (= x127 x158)) (and (and (not (= x66 x110)) (and (not (= x66 x158)) (and (not (= x66 x41)) (not (= x127 x66))))) (not (= x127 x41)))))))) (and (and (and (and (and (not (= x68 x58)) (and (not (= x44 x96)) (and (not (= x44 x68)) (and (not (= x58 x44)) (and (and (and (not (= x109 x44)) (not (= x58 x109))) (not (= x109 x68))) (not (= x109 x96))))))) (not (= x58 x96))) (not (= x96 x68))) (and (not (= x61 x60)) (and (and (and (not (= x80 x61)) (and (not (= x80 x60)) (and (not (= x35 x80)) (and (not (= x61 x55)) (and (and (not (= x55 x35)) (not (= x80 x55))) (not (= x55 x60))))))) (not (= x35 x60))) (not (= x61 x35))))) (and (not (= x17 x130)) (and (not (= x130 x131)) (and (and (and (not (= x132 x17)) (and (and (not (= x130 x52)) (and (and (not (= x52 x132)) (not (= x131 x52))) (not (= x17 x52)))) (not (= x131 x132)))) (not (= x130 x132))) (not (= x17 x131)))))))) (and (and (and (and (not (= x17 x118)) (and (not (= x158 x17)) (and (not (= x68 x118)) (and (and (and (and (not (= x158 x60)) (and (not (= x68 x60)) (not (= x17 x60)))) (not (= x118 x60))) (not (= x17 x68))) (not (= x68 x158)))))) (not (= x158 x118))) (and (and (and (not (= x106 x66)) (and (not (= x106 x52)) (and (and (not (= x109 x106)) (and (not (= x66 x109)) (and (and (not (= x55 x106)) (and (not (= x55 x66)) (and (not (= x55 x109)) (not (= x55 x52))))) (not (= x52 x109))))) (not (= x66 x52))))) (and (and (not (= x132 x76)) (and (not (= x127 x132)) (and (not (= x76 x44)) (and (not (= x127 x44)) (and (not (= x132 x44)) (and (and (and (not (= x80 x44)) (not (= x132 x80))) (not (= x127 x80))) (not (= x76 x80)))))))) (not (= x76 x127)))) (and (and (and (and (and (not (= x58 x41)) (and (and (and (and (not (= x58 x35)) (not (= x35 x131))) (not (= x41 x35))) (not (= x93 x35))) (not (= x58 x131)))) (not (= x58 x93))) (not (= x131 x41))) (not (= x93 x131))) (not (= x41 x93))))) (and (not (= x33 x110)) (and (not (= x130 x33)) (and (and (and (and (not (= x130 x96)) (and (and (not (= x110 x61)) (and (not (= x96 x61)) (not (= x61 x130)))) (not (= x61 x33)))) (not (= x96 x110))) (not (= x96 x33))) (not (= x130 x110)))))))))
(assert (not (and (and (and (= (x67 x97 x69) x69) (and (and (= (x67 x97 x79) x97) (and (and (and (= x90 (x67 x125 x69)) (and (= x97 (x67 x125 x90)) (and (= (x67 x125 x79) x79) (and (= x90 (x67 x69 x97)) (and (and (and (= (x67 x69 x90) x79) (and (= x69 (x67 x69 x79)) (and (= (x67 x90 x97) x97) (and (= x69 (x67 x90 x125)) (and (= (x67 x90 x69) x79) (and (= x90 (x67 x90 x90)) (and (= (x67 x90 x79) x125) (and (= (x67 x79 x97) x125) (and (and (and (= (x67 x79 x90) x69) (= x90 (x67 x79 x79))) (= x97 (x67 x79 x69))) (= x79 (x67 x79 x125))))))))))) (= x125 (x67 x69 x69))) (= x97 (x67 x69 x125))))))) (= x125 (x67 x125 x125))) (= x69 (x67 x125 x97)))) (= x125 (x67 x97 x90)))) (= (x67 x97 x125) x90)) (= x79 (x67 x97 x97)))))
(assert (let ((x26 (x67 x90 x90)) (x14 (x67 x125 x90)) (x22 (x67 x125 x69)) (x65 (x67 x79 x90)) (x95 (x67 x79 x79)) (x157 (x67 x97 x125)) (x89 (x67 x69 x79)) (x154 (x67 x90 x125)) (x149 (x67 x69 x125)) (x124 (x67 x97 x79)) (x92 (x67 x69 x97)) (x34 (x67 x90 x97)) (x99 (x67 x97 x69)) (x151 (x67 x69 x69)) (x150 (x67 x97 x97)) (x105 (x67 x125 x97)) (x77 (x67 x79 x69)) (x108 (x67 x90 x69)) (x114 (x67 x125 x125)) (x59 (x67 x69 x90)) (x78 (x67 x79 x125)) (x30 (x67 x90 x79)) (x146 (x67 x97 x90)) (x135 (x67 x79 x97)) (x75 (x67 x125 x79))) (let ((x61 (not (= x79 x89))) (x131 (not (= x79 x154))) (x64 (not (= x124 x97))) (x5 (not (= x90 x108))) (x85 (not (= x30 x90))) (x45 (not (= x69 x99))) (x80 (not (= x30 x79))) (x93 (not (= x79 x157))) (x17 (not (= x22 x79))) (x56 (not (= x78 x125))) (x156 (not (= x26 x90))) (x84 (not (= x69 x150))) (x9 (not (= x99 x125))) (x39 (not (= x90 x135))) (x106 (not (= x99 x79))) (x25 (not (= x149 x90))) (x94 (not (= x90 x75))) (x76 (not (= x92 x79))) (x49 (not (= x108 x69))) (x140 (not (= x90 x95))) (x83 (not (= x69 x135))) (x87 (not (= x69 x22))) (x112 (not (= x77 x125))) (x86 (not (= x26 x125))) (x1 (not (= x157 x97))) (x132 (not (= x14 x79))) (x42 (not (= x90 x114))) (x12 (not (= x89 x69))) (x32 (not (= x151 x69))) (x48 (not (= x22 x125))) (x11 (not (= x95 x97))) (x58 (not (= x108 x79))) (x55 (not (= x95 x79))) (x127 (not (= x79 x124))) (x15 (not (= x14 x69))) (x101 (not (= x69 x34))) (x134 (not (= x69 x92))) (x81 (not (= x90 x22))) (x139 (not (= x95 x69))) (x159 (not (= x26 x97))) (x115 (not (= x30 x69))) (x2 (not (= x95 x125))) (x52 (not (= x79 x78))) (x123 (not (= x78 x69))) (x36 (not (= x125 x146))) (x16 (not (= x75 x97))) (x68 (not (= x151 x79))) (x38 (not (= x125 x34))) (x57 (not (= x146 x90))) (x141 (not (= x150 x90))) (x51 (not (= x69 x65))) (x133 (not (= x105 x125))) (x71 (not (= x135 x97))) (x129 (not (= x108 x125))) (x33 (not (= x79 x150))) (x119 (not (= x105 x69))) (x121 (not (= x77 x97))) (x4 (not (= x69 x114))) (x28 (not (= x14 x90))) (x7 (not (= x69 x59))) (x103 (not (= x90 x124))) (x145 (not (= x90 x154))) (x137 (not (= x125 x59))) (x13 (not (= x97 x30))) (x72 (not (= x69 x124))) (x27 (not (= x59 x90))) (x158 (not (= x79 x146))) (x8 (not (= x78 x97))) (x66 (not (= x79 x114))) (x40 (not (= x69 x26))) (x142 (not (= x97 x34))) (x21 (not (= x125 x151))) (x152 (not (= x97 x108))) (x104 (not (= x59 x97))) (x113 (not (= x14 x97))) (x138 (not (= x97 x150))) (x73 (not (= x97 x65))) (x88 (not (= x125 x150))) (x109 (not (= x77 x79))) (x98 (not (= x125 x157))) (x117 (not (= x75 x125))) (x6 (not (= x125 x149))) (x102 (not (= x146 x97))) (x91 (not (= x157 x69))) (x23 (not (= x97 x89))) (x107 (not (= x124 x125))) (x128 (not (= x90 x92))) (x147 (not (= x154 x125))) (x18 (not (= x92 x97))) (x37 (not (= x90 x151))) (x62 (not (= x125 x65))) (x70 (not (= x90 x34))) (x41 (not (= x79 x135))) (x116 (not (= x77 x69))) (x122 (not (= x69 x146))) (x82 (not (= x77 x90))) (x100 (not (= x78 x90))) (x31 (not (= x114 x125))) (x143 (not (= x97 x99))) (x130 (not (= x149 x79))) (x29 (not (= x157 x90))) (x136 (not (= x69 x149))) (x50 (not (= x89 x90))) (x126 (not (= x69 x75))) (x47 (not (= x22 x97))) (x153 (not (= x135 x125))) (x96 (not (= x79 x75))) (x118 (not (= x79 x105))) (x53 (not (= x125 x14))) (x54 (not (= x97 x151))) (x120 (not (= x90 x99))) (x3 (not (= x154 x97))) (x110 (not (= x79 x34))) (x46 (not (= x90 x65))) (x10 (not (= x154 x69))) (x35 (not (= x79 x65))) (x24 (not (= x92 x125))) (x19 (not (= x90 x105))) (x44 (not (= x79 x59))) (x60 (not (= x79 x26))) (x43 (not (= x97 x114))) (x63 (not (= x105 x97))) (x148 (not (= x125 x89))) (x111 (not (= x149 x97))) (x144 (not (= x125 x30)))) (or (and (and (and (or x1 x63) (and (or x143 x18) (and (or x64 x71) (or x142 x102)))) (or x138 x138)) (and (and (and (and (or x111 x47) (and (and (or x23 x121) (or x104 x152)) (or x54 x54))) (or x143 x18)) (and (and (or x64 x71) (and (and (and (or x11 x11) (or x73 x13)) (or x23 x121)) (or x16 x8))) (and (or x142 x102) (and (or x3 x113) (and (and (or x13 x73) (or x159 x159)) (or x152 x104)))))) (and (or x1 x63) (and (or x43 x43) (and (and (or x3 x113) (or x8 x16)) (or x47 x111)))))) (or (or (or (and (and (and (or x118 x93) (and (and (or x17 x130) (and (or x132 x131) (or x52 x96))) (or x66 x66))) (and (and (and (or x41 x127) (and (and (and (or x55 x55) (or x80 x35)) (or x61 x109)) (or x96 x52))) (and (and (and (or x44 x58) (and (or x60 x60) (or x35 x80))) (or x131 x132)) (or x158 x110))) (and (and (or x17 x130) (and (and (or x44 x58) (or x61 x109)) (or x68 x68))) (or x76 x106)))) (and (or x33 x33) (and (and (or x76 x106) (and (or x127 x41) (or x158 x110))) (or x118 x93)))) (and (and (and (and (and (and (or x94 x100) (and (and (or x140 x140) (or x85 x46)) (or x82 x50))) (or x39 x103)) (and (and (and (and (or x156 x156) (or x46 x85)) (or x27 x5)) (or x145 x28)) (or x57 x70))) (and (or x120 x128) (and (and (or x37 x37) (and (or x50 x82) (or x27 x5))) (or x81 x25)))) (and (or x19 x29) (and (and (or x81 x25) (and (or x145 x28) (or x94 x100))) (or x42 x42)))) (and (or x141 x141) (and (and (or x120 x128) (and (or x57 x70) (or x103 x39))) (or x19 x29))))) (and (and (and (or x91 x119) (and (or x134 x45) (and (or x83 x72) (or x122 x101)))) (or x84 x84)) (and (and (and (or x134 x45) (and (and (and (or x49 x7) (or x12 x116)) (or x32 x32)) (or x136 x87))) (and (and (or x72 x83) (and (and (or x116 x12) (and (or x115 x51) (or x139 x139))) (or x123 x126))) (and (or x101 x122) (and (or x10 x15) (and (and (or x40 x40) (or x115 x51)) (or x49 x7)))))) (and (or x91 x119) (and (and (and (or x123 x126) (or x10 x15)) (or x87 x136)) (or x4 x4)))))) (and (and (and (or x98 x133) (and (or x31 x31) (and (or x6 x48) (and (or x147 x53) (or x56 x117))))) (and (and (and (and (or x53 x147) (and (and (or x144 x62) (or x86 x86)) (or x129 x137))) (or x38 x36)) (and (and (or x117 x56) (and (and (or x62 x144) (or x2 x2)) (or x148 x112))) (or x107 x153))) (and (or x9 x24) (and (or x48 x6) (and (or x21 x21) (and (or x112 x148) (or x137 x129))))))) (and (and (and (or x24 x9) (and (or x38 x36) (or x153 x107))) (or x133 x98)) (or x88 x88))))))))
(assert (or (or (or (or (and (not (= x97 (x67 (x67 x97 x90) x97))) (and (not (= (x67 (x67 x125 x90) x125) x125)) (and (and (not (= (x67 (x67 x79 x90) x79) x79)) (not (= (x67 (x67 x90 x90) x90) x90))) (not (= x69 (x67 (x67 x69 x90) x69)))))) (and (and (not (= x125 (x67 (x67 x125 x79) x125))) (and (and (not (= (x67 (x67 x90 x79) x90) x90)) (not (= (x67 (x67 x79 x79) x79) x79))) (not (= x69 (x67 (x67 x69 x79) x69))))) (not (= x97 (x67 (x67 x97 x79) x97))))) (and (and (and (not (= x69 (x67 (x67 x69 x69) x69))) (and (not (= x90 (x67 (x67 x90 x69) x90))) (not (= (x67 (x67 x79 x69) x79) x79)))) (not (= x125 (x67 (x67 x125 x69) x125)))) (not (= (x67 (x67 x97 x69) x97) x97)))) (and (and (not (= x125 (x67 (x67 x125 x125) x125))) (and (and (not (= x79 (x67 (x67 x79 x125) x79))) (not (= x90 (x67 (x67 x90 x125) x90)))) (not (= x69 (x67 (x67 x69 x125) x69))))) (not (= x97 (x67 (x67 x97 x125) x97))))) (and (not (= (x67 (x67 x97 x97) x97) x97)) (and (not (= (x67 (x67 x125 x97) x125) x125)) (and (and (not (= x79 (x67 (x67 x79 x97) x79))) (not (= x90 (x67 (x67 x90 x97) x90)))) (not (= (x67 (x67 x69 x97) x69) x69)))))))
(assert (and (and (not (= x97 x69)) (and (not (= x69 x125)) (and (not (= x97 x90)) (and (and (not (= x69 x90)) (and (not (= x79 x97)) (and (and (not (= x79 x90)) (not (= x79 x69))) (not (= x79 x125))))) (not (= x90 x125)))))) (not (= x125 x97))))
(assert (let ((x127 (x67 x125 x90)) (x118 (x67 x97 x125)) (x17 (x67 x69 x125)) (x60 (x67 x79 x125)) (x33 (x67 x97 x97)) (x131 (x67 x69 x69)) (x132 (x67 x69 x90)) (x158 (x67 x125 x125)) (x130 (x67 x69 x97)) (x96 (x67 x90 x97)) (x61 (x67 x79 x97)) (x66 (x67 x125 x79)) (x35 (x67 x79 x69)) (x110 (x67 x125 x97)) (x55 (x67 x79 x79)) (x93 (x67 x97 x69)) (x76 (x67 x97 x90)) (x41 (x67 x125 x69)) (x68 (x67 x90 x125)) (x44 (x67 x90 x90)) (x109 (x67 x90 x79)) (x58 (x67 x90 x69)) (x106 (x67 x97 x79)) (x80 (x67 x79 x90)) (x52 (x67 x69 x79))) (or (and (not (= (x67 x33 x33) x97)) (and (and (not (= x69 (x67 x93 x93))) (and (not (= x79 (x67 x106 x106))) (not (= x90 (x67 x76 x76))))) (not (= x125 (x67 x118 x118))))) (or (and (and (not (= x125 (x67 x158 x158))) (and (and (not (= x90 (x67 x127 x127))) (not (= x79 (x67 x66 x66)))) (not (= x69 (x67 x41 x41))))) (not (= x97 (x67 x110 x110)))) (or (and (and (and (and (not (= (x67 x132 x132) x90)) (not (= x79 (x67 x52 x52)))) (not (= x69 (x67 x131 x131)))) (not (= x125 (x67 x17 x17)))) (not (= (x67 x130 x130) x97))) (or (and (and (and (and (not (= (x67 x80 x80) x90)) (not (= (x67 x55 x55) x79))) (not (= x69 (x67 x35 x35)))) (not (= (x67 x60 x60) x125))) (not (= (x67 x61 x61) x97))) (and (not (= (x67 x96 x96) x97)) (and (and (not (= (x67 x58 x58) x69)) (and (not (= x90 (x67 x44 x44))) (not (= x79 (x67 x109 x109))))) (not (= (x67 x68 x68) x125))))))))))
(assert (and (or (or (= (x67 (x67 x125 x97) x125) x97) (or (= x97 (x67 (x67 x69 x97) x69)) (or (= x97 (x67 (x67 x90 x97) x90)) (= x97 (x67 (x67 x79 x97) x79))))) (= x97 (x67 (x67 x97 x97) x97))) (and (and (and (or (or (or (or (= (x67 (x67 x90 x79) x90) x79) (= x79 (x67 (x67 x79 x79) x79))) (= (x67 (x67 x69 x79) x69) x79)) (= x79 (x67 (x67 x125 x79) x125))) (= x79 (x67 (x67 x97 x79) x97))) (or (or (= x90 (x67 (x67 x125 x90) x125)) (or (= (x67 (x67 x69 x90) x69) x90) (or (= x90 (x67 (x67 x79 x90) x79)) (= (x67 (x67 x90 x90) x90) x90)))) (= x90 (x67 (x67 x97 x90) x97)))) (or (or (or (or (= x69 (x67 (x67 x79 x69) x79)) (= x69 (x67 (x67 x90 x69) x90))) (= (x67 (x67 x69 x69) x69) x69)) (= (x67 (x67 x125 x69) x125) x69)) (= (x67 (x67 x97 x69) x97) x69))) (or (or (or (= (x67 (x67 x69 x125) x69) x125) (or (= (x67 (x67 x79 x125) x79) x125) (= x125 (x67 (x67 x90 x125) x90)))) (= (x67 (x67 x125 x125) x125) x125)) (= x125 (x67 (x67 x97 x125) x97))))))
(assert (or (and (not (= (x67 x97 (x67 x97 x97)) x97)) (and (and (and (not (= x79 (x67 x97 (x67 x97 x79)))) (not (= (x67 x97 (x67 x97 x90)) x90))) (not (= (x67 x97 (x67 x97 x69)) x69))) (not (= (x67 x97 (x67 x97 x125)) x125)))) (or (or (and (not (= x97 (x67 x69 (x67 x69 x97)))) (and (and (and (not (= x90 (x67 x69 (x67 x69 x90)))) (not (= x79 (x67 x69 (x67 x69 x79))))) (not (= x69 (x67 x69 (x67 x69 x69))))) (not (= (x67 x69 (x67 x69 x125)) x125)))) (or (and (not (= (x67 x90 (x67 x90 x97)) x97)) (and (and (and (not (= x79 (x67 x90 (x67 x90 x79)))) (not (= (x67 x90 (x67 x90 x90)) x90))) (not (= (x67 x90 (x67 x90 x69)) x69))) (not (= x125 (x67 x90 (x67 x90 x125)))))) (and (and (and (not (= (x67 x79 (x67 x79 x69)) x69)) (and (not (= x90 (x67 x79 (x67 x79 x90)))) (not (= x79 (x67 x79 (x67 x79 x79)))))) (not (= (x67 x79 (x67 x79 x125)) x125))) (not (= (x67 x79 (x67 x79 x97)) x97))))) (and (and (not (= x125 (x67 x125 (x67 x125 x125)))) (and (not (= (x67 x125 (x67 x125 x69)) x69)) (and (not (= x90 (x67 x125 (x67 x125 x90)))) (not (= (x67 x125 (x67 x125 x79)) x79))))) (not (= x97 (x67 x125 (x67 x125 x97))))))))
(assert (and (= x97 (x67 x69 x125)) (and (and (= x90 (x67 x79 x79)) (= x69 (x67 x79 x90))) (= (x67 x90 x79) x125))))
(assert (and (or (= x97 (x67 x97 (x67 x97 x97))) (or (or (= x97 (x67 x69 (x67 x97 x69))) (or (= (x67 x79 (x67 x97 x79)) x97) (= (x67 x90 (x67 x97 x90)) x97))) (= x97 (x67 x125 (x67 x97 x125))))) (and (and (and (or (or (= x90 (x67 x125 (x67 x90 x125))) (or (= (x67 x69 (x67 x90 x69)) x90) (or (= x90 (x67 x79 (x67 x90 x79))) (= (x67 x90 (x67 x90 x90)) x90)))) (= x90 (x67 x97 (x67 x90 x97)))) (or (= (x67 x97 (x67 x79 x97)) x79) (or (or (or (= (x67 x90 (x67 x79 x90)) x79) (= (x67 x79 (x67 x79 x79)) x79)) (= x79 (x67 x69 (x67 x79 x69)))) (= x79 (x67 x125 (x67 x79 x125)))))) (or (= (x67 x97 (x67 x69 x97)) x69) (or (= (x67 x125 (x67 x69 x125)) x69) (or (or (= x69 (x67 x90 (x67 x69 x90))) (= (x67 x79 (x67 x69 x79)) x69)) (= (x67 x69 (x67 x69 x69)) x69))))) (or (or (= x125 (x67 x125 (x67 x125 x125))) (or (or (= x125 (x67 x79 (x67 x125 x79))) (= x125 (x67 x90 (x67 x125 x90)))) (= (x67 x69 (x67 x125 x69)) x125))) (= (x67 x97 (x67 x125 x97)) x125)))))
(assert (or (= (x67 x97 x97) x97) (or (= (x67 x125 x125) x125) (or (= (x67 x69 x69) x69) (or (= x90 (x67 x90 x90)) (= (x67 x79 x79) x79))))))
(assert (or (and (and (and (not (= (x67 (x67 x69 x97) x97) x69)) (and (not (= x79 (x67 (x67 x79 x97) x97))) (not (= x90 (x67 (x67 x90 x97) x97))))) (not (= (x67 (x67 x125 x97) x97) x125))) (not (= (x67 (x67 x97 x97) x97) x97))) (or (or (or (and (not (= x97 (x67 (x67 x97 x79) x79))) (and (and (and (not (= x79 (x67 (x67 x79 x79) x79))) (not (= (x67 (x67 x90 x79) x79) x90))) (not (= (x67 (x67 x69 x79) x79) x69))) (not (= (x67 (x67 x125 x79) x79) x125)))) (and (not (= x97 (x67 (x67 x97 x90) x90))) (and (not (= x125 (x67 (x67 x125 x90) x90))) (and (and (not (= (x67 (x67 x79 x90) x90) x79)) (not (= x90 (x67 (x67 x90 x90) x90)))) (not (= x69 (x67 (x67 x69 x90) x90))))))) (and (not (= (x67 (x67 x97 x69) x69) x97)) (and (not (= x125 (x67 (x67 x125 x69) x69))) (and (not (= x69 (x67 (x67 x69 x69) x69))) (and (not (= x79 (x67 (x67 x79 x69) x69))) (not (= x90 (x67 (x67 x90 x69) x69)))))))) (and (and (not (= x125 (x67 (x67 x125 x125) x125))) (and (and (not (= x90 (x67 (x67 x90 x125) x125))) (not (= (x67 (x67 x79 x125) x125) x79))) (not (= x69 (x67 (x67 x69 x125) x125))))) (not (= (x67 (x67 x97 x125) x125) x97))))))
(assert (or (or (and (not (= (x67 x97 (x67 x125 x97)) x97)) (and (not (= x125 (x67 x125 (x67 x125 x125)))) (and (and (not (= (x67 x90 (x67 x125 x90)) x90)) (not (= (x67 x79 (x67 x125 x79)) x79))) (not (= x69 (x67 x69 (x67 x125 x69))))))) (or (and (and (and (and (not (= x79 (x67 x79 (x67 x69 x79)))) (not (= (x67 x90 (x67 x69 x90)) x90))) (not (= x69 (x67 x69 (x67 x69 x69))))) (not (= x125 (x67 x125 (x67 x69 x125))))) (not (= x97 (x67 x97 (x67 x69 x97))))) (or (and (not (= x97 (x67 x97 (x67 x90 x97)))) (and (not (= x125 (x67 x125 (x67 x90 x125)))) (and (and (not (= (x67 x79 (x67 x90 x79)) x79)) (not (= x90 (x67 x90 (x67 x90 x90))))) (not (= (x67 x69 (x67 x90 x69)) x69))))) (and (and (and (and (not (= x90 (x67 x90 (x67 x79 x90)))) (not (= (x67 x79 (x67 x79 x79)) x79))) (not (= x69 (x67 x69 (x67 x79 x69))))) (not (= x125 (x67 x125 (x67 x79 x125))))) (not (= x97 (x67 x97 (x67 x79 x97)))))))) (and (not (= x97 (x67 x97 (x67 x97 x97)))) (and (not (= (x67 x125 (x67 x97 x125)) x125)) (and (and (not (= x79 (x67 x79 (x67 x97 x79)))) (not (= x90 (x67 x90 (x67 x97 x90))))) (not (= x69 (x67 x69 (x67 x97 x69)))))))))
(assert (or (and (not (= x97 (x67 (x67 x97 x97) x97))) (and (and (and (not (= (x67 (x67 x97 x79) x97) x79)) (not (= x90 (x67 (x67 x97 x90) x97)))) (not (= x69 (x67 (x67 x97 x69) x97)))) (not (= x125 (x67 (x67 x97 x125) x97))))) (or (and (and (not (= (x67 (x67 x125 x125) x125) x125)) (and (and (not (= (x67 (x67 x125 x79) x125) x79)) (not (= x90 (x67 (x67 x125 x90) x125)))) (not (= x69 (x67 (x67 x125 x69) x125))))) (not (= (x67 (x67 x125 x97) x125) x97))) (or (or (and (and (not (= x125 (x67 (x67 x90 x125) x90))) (and (not (= (x67 (x67 x90 x69) x90) x69)) (and (not (= x90 (x67 (x67 x90 x90) x90))) (not (= (x67 (x67 x90 x79) x90) x79))))) (not (= x97 (x67 (x67 x90 x97) x90)))) (and (not (= x97 (x67 (x67 x79 x97) x79))) (and (and (and (not (= (x67 (x67 x79 x79) x79) x79)) (not (= x90 (x67 (x67 x79 x90) x79)))) (not (= x69 (x67 (x67 x79 x69) x79)))) (not (= (x67 (x67 x79 x125) x79) x125))))) (and (not (= x97 (x67 (x67 x69 x97) x69))) (and (not (= x125 (x67 (x67 x69 x125) x69))) (and (not (= (x67 (x67 x69 x69) x69) x69)) (and (not (= (x67 (x67 x69 x79) x69) x79)) (not (= x90 (x67 (x67 x69 x90) x69)))))))))))
(assert (let ((x60 (x67 x125 x125)) (x61 (x67 x97 x97)) (x35 (x67 x69 x69)) (x80 (x67 x90 x90)) (x55 (x67 x79 x79))) (or (and (not (= x97 x61)) (and (not (= x60 x97)) (and (and (not (= x55 x97)) (not (= x97 x80))) (not (= x97 x35))))) (or (or (and (not (= x69 x61)) (and (and (and (not (= x69 x55)) (not (= x80 x69))) (not (= x69 x35))) (not (= x69 x60)))) (or (and (not (= x61 x90)) (and (and (not (= x35 x90)) (and (not (= x80 x90)) (not (= x90 x55)))) (not (= x60 x90)))) (and (and (and (not (= x79 x35)) (and (not (= x79 x55)) (not (= x80 x79)))) (not (= x60 x79))) (not (= x79 x61))))) (and (not (= x125 x61)) (and (not (= x60 x125)) (and (not (= x125 x35)) (and (not (= x55 x125)) (not (= x125 x80))))))))))
(assert (let ((x132 (x67 x69 x90)) (x41 (x67 x125 x69)) (x58 (x67 x90 x69)) (x127 (x67 x125 x90)) (x110 (x67 x125 x97)) (x61 (x67 x79 x97)) (x96 (x67 x90 x97)) (x131 (x67 x69 x69)) (x106 (x67 x97 x79)) (x52 (x67 x69 x79)) (x60 (x67 x79 x125)) (x17 (x67 x69 x125)) (x158 (x67 x125 x125)) (x76 (x67 x97 x90)) (x66 (x67 x125 x79)) (x118 (x67 x97 x125)) (x130 (x67 x69 x97)) (x55 (x67 x79 x79)) (x109 (x67 x90 x79)) (x68 (x67 x90 x125)) (x93 (x67 x97 x69)) (x35 (x67 x79 x69)) (x44 (x67 x90 x90)) (x80 (x67 x79 x90)) (x33 (x67 x97 x97))) (and (and (and (and (and (and (and (and (or (or (or (= x55 x69) (or (= x55 x90) (= x55 x79))) (= x125 x55)) (= x55 x97)) (or (= x80 x97) (or (= x125 x80) (or (= x80 x69) (or (= x80 x79) (= x90 x80)))))) (or (or (or (= x35 x69) (or (= x35 x90) (= x79 x35))) (= x125 x35)) (= x97 x35))) (or (or (or (= x69 x60) (or (= x60 x79) (= x60 x90))) (= x60 x125)) (= x60 x97))) (or (= x61 x97) (or (or (= x69 x61) (or (= x90 x61) (= x79 x61))) (= x61 x125)))) (and (or (= x96 x97) (or (= x125 x96) (or (or (= x96 x90) (= x96 x79)) (= x69 x96)))) (and (and (or (or (= x125 x58) (or (= x69 x58) (or (= x58 x90) (= x79 x58)))) (= x97 x58)) (and (or (= x97 x44) (or (= x125 x44) (or (= x69 x44) (or (= x44 x79) (= x44 x90))))) (or (= x109 x97) (or (= x109 x125) (or (= x109 x69) (or (= x109 x79) (= x90 x109))))))) (or (or (= x125 x68) (or (= x69 x68) (or (= x90 x68) (= x79 x68)))) (= x68 x97))))) (and (or (or (or (= x69 x130) (or (= x79 x130) (= x130 x90))) (= x130 x125)) (= x97 x130)) (and (or (= x17 x97) (or (= x125 x17) (or (= x17 x69) (or (= x90 x17) (= x79 x17))))) (and (or (or (= x125 x131) (or (or (= x131 x90) (= x79 x131)) (= x131 x69))) (= x131 x97)) (and (or (or (or (or (= x132 x90) (= x132 x79)) (= x69 x132)) (= x132 x125)) (= x97 x132)) (or (= x97 x52) (or (or (= x52 x69) (or (= x90 x52) (= x52 x79))) (= x125 x52)))))))) (and (and (and (and (or (or (= x125 x127) (or (= x69 x127) (or (= x127 x79) (= x90 x127)))) (= x127 x97)) (or (or (= x125 x66) (or (= x66 x69) (or (= x66 x79) (= x66 x90)))) (= x97 x66))) (or (= x41 x97) (or (= x41 x125) (or (or (= x41 x90) (= x79 x41)) (= x69 x41))))) (or (= x158 x97) (or (or (or (= x158 x90) (= x158 x79)) (= x69 x158)) (= x158 x125)))) (or (= x110 x97) (or (or (= x69 x110) (or (= x110 x79) (= x90 x110))) (= x125 x110))))) (and (and (and (or (or (or (= x69 x93) (or (= x90 x93) (= x79 x93))) (= x125 x93)) (= x97 x93)) (and (or (or (= x125 x106) (or (= x106 x69) (or (= x106 x79) (= x106 x90)))) (= x97 x106)) (or (or (= x125 x76) (or (or (= x76 x79) (= x90 x76)) (= x69 x76))) (= x97 x76)))) (or (= x118 x97) (or (= x125 x118) (or (= x118 x69) (or (= x90 x118) (= x79 x118)))))) (or (= x33 x97) (or (or (or (= x90 x33) (= x33 x79)) (= x33 x69)) (= x125 x33)))))))
(assert (or (and (= x97 (x67 (x67 x97 x97) x97)) (and (and (and (= (x67 (x67 x90 x97) x97) x90) (= x79 (x67 (x67 x79 x97) x97))) (= x69 (x67 (x67 x69 x97) x97))) (= x125 (x67 (x67 x125 x97) x97)))) (or (and (= (x67 (x67 x97 x125) x125) x97) (and (= (x67 (x67 x125 x125) x125) x125) (and (= x69 (x67 (x67 x69 x125) x125)) (and (= x79 (x67 (x67 x79 x125) x125)) (= (x67 (x67 x90 x125) x125) x90))))) (or (and (= (x67 (x67 x97 x69) x69) x97) (and (and (and (= x79 (x67 (x67 x79 x69) x69)) (= x90 (x67 (x67 x90 x69) x69))) (= x69 (x67 (x67 x69 x69) x69))) (= x125 (x67 (x67 x125 x69) x69)))) (or (and (and (and (= x69 (x67 (x67 x69 x79) x79)) (and (= x90 (x67 (x67 x90 x79) x79)) (= (x67 (x67 x79 x79) x79) x79))) (= x125 (x67 (x67 x125 x79) x79))) (= (x67 (x67 x97 x79) x79) x97)) (and (= (x67 (x67 x97 x90) x90) x97) (and (and (= x69 (x67 (x67 x69 x90) x90)) (and (= x90 (x67 (x67 x90 x90) x90)) (= (x67 (x67 x79 x90) x90) x79))) (= (x67 (x67 x125 x90) x90) x125))))))))
(check-sat)
(exit)
